c colouring generated by benchmark framework
p edge 125 6961
v 1 39
v 2 8
v 3 5
v 4 53
v 5 47
v 6 6
v 7 27
v 8 11
v 9 58
v 10 1
v 11 21
v 12 14
v 13 49
v 14 22
v 15 23
v 16 20
v 17 50
v 18 26
v 19 56
v 20 10
v 21 38
v 22 25
v 23 42
v 24 15
v 25 46
v 26 26
v 27 9
v 28 35
v 29 8
v 30 40
v 31 0
v 32 16
v 33 36
v 34 27
v 35 1
v 36 7
v 37 10
v 38 36
v 39 22
v 40 8
v 41 30
v 42 51
v 43 28
v 44 32
v 45 45
v 46 50
v 47 18
v 48 29
v 49 52
v 50 57
v 51 17
v 52 4
v 53 11
v 54 14
v 55 17
v 56 45
v 57 34
v 58 29
v 59 34
v 60 46
v 61 5
v 62 49
v 63 53
v 64 59
v 65 15
v 66 43
v 67 25
v 68 41
v 69 10
v 70 12
v 71 37
v 72 19
v 73 12
v 74 21
v 75 41
v 76 33
v 77 16
v 78 54
v 79 3
v 80 44
v 81 24
v 82 7
v 83 55
v 84 19
v 85 39
v 86 27
v 87 44
v 88 13
v 89 24
v 90 32
v 91 50
v 92 20
v 93 15
v 94 14
v 95 4
v 96 59
v 97 11
v 98 28
v 99 33
v 100 48
v 101 18
v 102 5
v 103 30
v 104 11
v 105 1
v 106 2
v 107 19
v 108 47
v 109 0
v 110 51
v 111 23
v 112 13
v 113 35
v 114 38
v 115 19
v 116 9
v 117 37
v 118 3
v 119 40
v 120 2
v 121 6
v 122 31
v 123 42
v 124 31
v 125 17
